# Objective value = 5504.65
I_0_0 1801
I_0_1 2336
I_0_2 1954
I_0_3 2418
I_0_4 2084
I_0_5 1953
I_0_6 2723
I_1_0 10
I_1_1 0
I_1_2 10
I_1_3 0
I_1_4 10
I_1_5 10
I_1_6 0
I_2_0 11
I_2_1 0
I_2_2 11
I_2_3 9.5409791178724390e-18
I_2_4 11
I_2_5 11
I_2_6 0
I_3_0 24
I_3_1 12
I_3_2 24
I_3_3 12
I_3_4 0
I_3_5 2.3999999999999993e+01
I_3_6 1.1999999999999993e+01
I_4_0 34
I_4_1 17
I_4_2 3.4000000000000007e+01
I_4_3 1.7000000000000007e+01
I_4_4 3.4000000000000007e+01
I_4_5 34
I_4_6 17
I_5_0 82
I_5_1 82
I_5_2 82
I_5_3 0
I_5_4 82
I_5_5 8.2000000000000014e+01
I_5_6 0
I_6_0 59
I_6_1 59
I_6_2 0
I_6_3 59
I_6_4 0
I_6_5 59
I_6_6 0
I_7_0 54
I_7_1 27
I_7_2 5.4000000000000007e+01
I_7_3 2.7000000000000007e+01
I_7_4 5.3999999999999993e+01
I_7_5 54
I_7_6 27
I_8_0 98
I_8_1 0
I_8_2 98
I_8_3 0
I_8_4 98
I_8_5 98
I_8_6 0
I_9_0 94
I_9_1 94
I_9_2 0
I_9_3 94
I_9_4 0
I_9_5 9.3999999999999986e+01
I_9_6 0
I_10_0 42
I_10_1 0
I_10_2 42
I_10_3 0
I_10_4 42
I_10_5 42
I_10_6 0
I_11_0 51
I_11_1 0
I_11_2 51
I_11_3 0
I_11_4 51
I_11_5 5.1000000000000014e+01
I_11_6 0
I_12_0 106
I_12_1 53
I_12_2 106
I_12_3 53
I_12_4 0
I_12_5 106
I_12_6 53
I_13_0 62
I_13_1 0
I_13_2 62
I_13_3 0
I_13_4 62
I_13_5 6.2000000000000014e+01
I_13_6 0
I_14_0 134
I_14_1 67
I_14_2 134
I_14_3 67
I_14_4 134
I_14_5 67
I_14_6 0
I_15_0 170
I_15_1 85
I_15_2 170
I_15_3 85
I_15_4 170
I_15_5 85
I_15_6 0
q_1_0 0
q_1_1 20
q_1_2 0
q_1_3 20
q_1_4 10
q_1_5 0
q_2_0 0
q_2_1 22
q_2_2 9.5409791178724390e-18
q_2_3 22
q_2_4 11
q_2_5 0
q_3_0 0
q_3_1 2.3999999999999996e+01
q_3_2 -5.5511151231257827e-17
q_3_3 0
q_3_4 3.5999999999999993e+01
q_3_5 0
q_4_0 0
q_4_1 3.4000000000000007e+01
q_4_2 0
q_4_3 34
q_4_4 1.6999999999999993e+01
q_4_5 0
q_5_0 82
q_5_1 82
q_5_2 0
q_5_3 164
q_5_4 8.2000000000000014e+01
q_5_5 -1.4210854715202004e-14
q_6_0 59
q_6_1 0
q_6_2 118
q_6_3 0
q_6_4 118
q_6_5 0
q_7_0 0
q_7_1 54
q_7_2 1.1102230246251565e-16
q_7_3 5.3999999999999986e+01
q_7_4 2.7000000000000011e+01
q_7_5 0
q_8_0 0
q_8_1 196
q_8_2 0
q_8_3 196
q_8_4 98
q_8_5 0
q_9_0 94
q_9_1 0
q_9_2 188
q_9_3 0
q_9_4 188
q_9_5 1.4210854715202004e-14
q_10_0 0
q_10_1 84
q_10_2 0
q_10_3 84
q_10_4 42
q_10_5 0
q_11_0 0
q_11_1 102
q_11_2 0
q_11_3 102
q_11_4 5.1000000000000014e+01
q_11_5 -1.4210854715202004e-14
q_12_0 0
q_12_1 106
q_12_2 0
q_12_3 0
q_12_4 159
q_12_5 0
q_13_0 0
q_13_1 124
q_13_2 0
q_13_3 124
q_13_4 6.2000000000000014e+01
q_13_5 -1.4210854715202004e-14
q_14_0 0
q_14_1 134
q_14_2 0
q_14_3 134
q_14_4 0
q_14_5 0
q_15_0 0
q_15_1 170
q_15_2 0
q_15_3 170
q_15_4 0
q_15_5 0
y_0_0 1
y_0_1 1
y_0_2 1
y_0_3 1
y_0_4 1
y_0_5 0
y_1_0 0
y_1_1 1
y_1_2 0
y_1_3 1
y_1_4 1
y_1_5 0
y_2_0 0
y_2_1 1
y_2_2 8.6736173798840355e-19
y_2_3 1
y_2_4 1
y_2_5 0
y_3_0 0
y_3_1 1
y_3_2 0
y_3_3 0
y_3_4 9.9999999999999933e-01
y_3_5 0
y_4_0 0
y_4_1 1.0000000000000002e+00
y_4_2 8.6736173798840355e-19
y_4_3 1
y_4_4 1
y_4_5 0
y_5_0 1
y_5_1 1
y_5_2 0
y_5_3 1
y_5_4 1.0000000000000002e+00
y_5_5 0
y_6_0 1
y_6_1 0
y_6_2 1
y_6_3 0
y_6_4 1
y_6_5 0
y_7_0 0
y_7_1 1
y_7_2 8.6736173798840355e-19
y_7_3 1
y_7_4 1
y_7_5 0
y_8_0 0
y_8_1 1
y_8_2 0
y_8_3 1
y_8_4 1
y_8_5 0
y_9_0 1
y_9_1 0
y_9_2 1
y_9_3 0
y_9_4 9.9999999999999978e-01
y_9_5 0
y_10_0 0
y_10_1 1
y_10_2 0
y_10_3 1
y_10_4 1
y_10_5 0
y_11_0 0
y_11_1 1
y_11_2 0
y_11_3 1
y_11_4 1.0000000000000002e+00
y_11_5 0
y_12_0 0
y_12_1 1
y_12_2 0
y_12_3 0
y_12_4 1.0000000000000002e+00
y_12_5 0
y_13_0 0
y_13_1 1
y_13_2 0
y_13_3 1
y_13_4 1.0000000000000002e+00
y_13_5 0
y_14_0 0
y_14_1 1
y_14_2 0
y_14_3 1
y_14_4 0
y_14_5 0
y_15_0 0
y_15_1 1
y_15_2 0
y_15_3 1
y_15_4 0
y_15_5 0
x_0_1_0 0
x_0_1_1 0
x_0_1_2 0
x_0_1_3 0
x_0_1_4 0
x_0_1_5 0
x_0_2_0 0
x_0_2_1 0
x_0_2_2 1.7347234759768071e-18
x_0_2_3 0
x_0_2_4 0
x_0_2_5 0
x_0_3_0 0
x_0_3_1 0
x_0_3_2 0
x_0_3_3 0
x_0_3_4 0
x_0_3_5 0
x_0_4_0 0
x_0_4_1 0
x_0_4_2 0
x_0_4_3 0
x_0_4_4 0
x_0_4_5 0
x_0_5_0 1
x_0_5_1 9.9999999999999933e-01
x_0_5_2 0
x_0_5_3 1.0000000000000016e+00
x_0_5_4 1.0000000000000004e+00
x_0_5_5 0
x_0_6_0 0
x_0_6_1 -1.4051260155412137e-16
x_0_6_2 1
x_0_6_3 0
x_0_6_4 0
x_0_6_5 0
x_0_7_0 0
x_0_7_1 0
x_0_7_2 0
x_0_7_3 0
x_0_7_4 0
x_0_7_5 0
x_0_8_0 0
x_0_8_1 0
x_0_8_2 0
x_0_8_3 0
x_0_8_4 0
x_0_8_5 0
x_0_9_0 1
x_0_9_1 -1.4224732503009818e-16
x_0_9_2 1
x_0_9_3 0
x_0_9_4 9.9999999999999967e-01
x_0_9_5 0
x_0_10_0 0
x_0_10_1 1
x_0_10_2 -1.7347234759768071e-18
x_0_10_3 1
x_0_10_4 0
x_0_10_5 0
x_0_11_0 0
x_0_11_1 0
x_0_11_2 0
x_0_11_3 0
x_0_11_4 0
x_0_11_5 0
x_0_12_0 0
x_0_12_1 0
x_0_12_2 0
x_0_12_3 0
x_0_12_4 0
x_0_12_5 0
x_0_13_0 0
x_0_13_1 0
x_0_13_2 0
x_0_13_3 0
x_0_13_4 0
x_0_13_5 0
x_0_14_0 0
x_0_14_1 0
x_0_14_2 0
x_0_14_3 0
x_0_14_4 0
x_0_14_5 0
x_0_15_0 0
x_0_15_1 0
x_0_15_2 0
x_0_15_3 0
x_0_15_4 0
x_0_15_5 0
x_1_2_0 0
x_1_2_1 -1.9428902930940239e-16
x_1_2_2 0
x_1_2_3 8.6736173798840355e-19
x_1_2_4 0
x_1_2_5 0
x_1_3_0 0
x_1_3_1 1
x_1_3_2 -8.6736173798840355e-19
x_1_3_3 0
x_1_3_4 9.9999999999999933e-01
x_1_3_5 0
x_1_4_0 0
x_1_4_1 0
x_1_4_2 0
x_1_4_3 0
x_1_4_4 0
x_1_4_5 0
x_1_5_0 0
x_1_5_1 0
x_1_5_2 0
x_1_5_3 0
x_1_5_4 0
x_1_5_5 0
x_1_6_0 0
x_1_6_1 0
x_1_6_2 0
x_1_6_3 0
x_1_6_4 0
x_1_6_5 0
x_1_7_0 0
x_1_7_1 1.0000000000000002e+00
x_1_7_2 8.6736173798840355e-19
x_1_7_3 1
x_1_7_4 1
x_1_7_5 0
x_1_8_0 0
x_1_8_1 0
x_1_8_2 0
x_1_8_3 0
x_1_8_4 0
x_1_8_5 0
x_1_9_0 0
x_1_9_1 0
x_1_9_2 0
x_1_9_3 0
x_1_9_4 0
x_1_9_5 0
x_1_10_0 0
x_1_10_1 0
x_1_10_2 0
x_1_10_3 0
x_1_10_4 0
x_1_10_5 0
x_1_11_0 0
x_1_11_1 0
x_1_11_2 0
x_1_11_3 0
x_1_11_4 0
x_1_11_5 0
x_1_12_0 0
x_1_12_1 0
x_1_12_2 0
x_1_12_3 0
x_1_12_4 0
x_1_12_5 0
x_1_13_0 0
x_1_13_1 0
x_1_13_2 0
x_1_13_3 0
x_1_13_4 0
x_1_13_5 0
x_1_14_0 0
x_1_14_1 0
x_1_14_2 0
x_1_14_3 0
x_1_14_4 0
x_1_14_5 0
x_1_15_0 0
x_1_15_1 0
x_1_15_2 0
x_1_15_3 1
x_1_15_4 0
x_1_15_5 0
x_2_3_0 0
x_2_3_1 0
x_2_3_2 0
x_2_3_3 0
x_2_3_4 0
x_2_3_5 0
x_2_4_0 0
x_2_4_1 1.0000000000000002e+00
x_2_4_2 8.6736173798840355e-19
x_2_4_3 1
x_2_4_4 1
x_2_4_5 0
x_2_5_0 0
x_2_5_1 0
x_2_5_2 0
x_2_5_3 0
x_2_5_4 0
x_2_5_5 0
x_2_6_0 0
x_2_6_1 0
x_2_6_2 0
x_2_6_3 0
x_2_6_4 0
x_2_6_5 0
x_2_7_0 0
x_2_7_1 1
x_2_7_2 0
x_2_7_3 1
x_2_7_4 1
x_2_7_5 0
x_2_8_0 0
x_2_8_1 0
x_2_8_2 0
x_2_8_3 0
x_2_8_4 0
x_2_8_5 0
x_2_9_0 0
x_2_9_1 0
x_2_9_2 0
x_2_9_3 0
x_2_9_4 0
x_2_9_5 0
x_2_10_0 0
x_2_10_1 0
x_2_10_2 -1.7347234759768071e-18
x_2_10_3 0
x_2_10_4 0
x_2_10_5 0
x_2_11_0 0
x_2_11_1 0
x_2_11_2 0
x_2_11_3 0
x_2_11_4 0
x_2_11_5 0
x_2_12_0 0
x_2_12_1 0
x_2_12_2 0
x_2_12_3 0
x_2_12_4 0
x_2_12_5 0
x_2_13_0 0
x_2_13_1 0
x_2_13_2 0
x_2_13_3 0
x_2_13_4 0
x_2_13_5 0
x_2_14_0 0
x_2_14_1 0
x_2_14_2 0
x_2_14_3 0
x_2_14_4 0
x_2_14_5 0
x_2_15_0 0
x_2_15_1 0
x_2_15_2 0
x_2_15_3 0
x_2_15_4 0
x_2_15_5 0
x_3_4_0 0
x_3_4_1 0
x_3_4_2 -8.6736173798840355e-19
x_3_4_3 0
x_3_4_4 0
x_3_4_5 0
x_3_5_0 0
x_3_5_1 0
x_3_5_2 0
x_3_5_3 0
x_3_5_4 0
x_3_5_5 0
x_3_6_0 0
x_3_6_1 0
x_3_6_2 0
x_3_6_3 0
x_3_6_4 0
x_3_6_5 0
x_3_7_0 0
x_3_7_1 0
x_3_7_2 0
x_3_7_3 0
x_3_7_4 0
x_3_7_5 0
x_3_8_0 0
x_3_8_1 0
x_3_8_2 0
x_3_8_3 0
x_3_8_4 0
x_3_8_5 0
x_3_9_0 0
x_3_9_1 0
x_3_9_2 0
x_3_9_3 0
x_3_9_4 0
x_3_9_5 0
x_3_10_0 0
x_3_10_1 0
x_3_10_2 1.7347234759768071e-18
x_3_10_3 0
x_3_10_4 0
x_3_10_5 0
x_3_11_0 0
x_3_11_1 0
x_3_11_2 0
x_3_11_3 0
x_3_11_4 0
x_3_11_5 0
x_3_12_0 0
x_3_12_1 0
x_3_12_2 0
x_3_12_3 0
x_3_12_4 1.0000000000000002e+00
x_3_12_5 0
x_3_13_0 0
x_3_13_1 0
x_3_13_2 0
x_3_13_3 0
x_3_13_4 0
x_3_13_5 0
x_3_14_0 0
x_3_14_1 0
x_3_14_2 0
x_3_14_3 0
x_3_14_4 0
x_3_14_5 0
x_3_15_0 0
x_3_15_1 1
x_3_15_2 0
x_3_15_3 0
x_3_15_4 0
x_3_15_5 0
x_4_5_0 0
x_4_5_1 0
x_4_5_2 0
x_4_5_3 0
x_4_5_4 0
x_4_5_5 0
x_4_6_0 0
x_4_6_1 0
x_4_6_2 0
x_4_6_3 0
x_4_6_4 0
x_4_6_5 0
x_4_7_0 0
x_4_7_1 0
x_4_7_2 8.6736173798840355e-19
x_4_7_3 0
x_4_7_4 0
x_4_7_5 0
x_4_8_0 0
x_4_8_1 0
x_4_8_2 0
x_4_8_3 0
x_4_8_4 0
x_4_8_5 0
x_4_9_0 0
x_4_9_1 0
x_4_9_2 0
x_4_9_3 0
x_4_9_4 0
x_4_9_5 0
x_4_10_0 0
x_4_10_1 1.0000000000000002e+00
x_4_10_2 8.6736173798840355e-19
x_4_10_3 1
x_4_10_4 1
x_4_10_5 0
x_4_11_0 0
x_4_11_1 0
x_4_11_2 0
x_4_11_3 0
x_4_11_4 0
x_4_11_5 0
x_4_12_0 0
x_4_12_1 0
x_4_12_2 0
x_4_12_3 0
x_4_12_4 0
x_4_12_5 0
x_4_13_0 0
x_4_13_1 0
x_4_13_2 0
x_4_13_3 0
x_4_13_4 0
x_4_13_5 0
x_4_14_0 0
x_4_14_1 0
x_4_14_2 0
x_4_14_3 0
x_4_14_4 0
x_4_14_5 0
x_4_15_0 0
x_4_15_1 0
x_4_15_2 0
x_4_15_3 0
x_4_15_4 0
x_4_15_5 0
x_5_6_0 1
x_5_6_1 0
x_5_6_2 0
x_5_6_3 0
x_5_6_4 0
x_5_6_5 0
x_5_7_0 0
x_5_7_1 0
x_5_7_2 0
x_5_7_3 0
x_5_7_4 0
x_5_7_5 0
x_5_8_0 0
x_5_8_1 1
x_5_8_2 0
x_5_8_3 1
x_5_8_4 1
x_5_8_5 0
x_5_9_0 0
x_5_9_1 0
x_5_9_2 0
x_5_9_3 0
x_5_9_4 0
x_5_9_5 0
x_5_10_0 0
x_5_10_1 0
x_5_10_2 0
x_5_10_3 0
x_5_10_4 0
x_5_10_5 0
x_5_11_0 0
x_5_11_1 6.6786853825107073e-16
x_5_11_2 0
x_5_11_3 0
x_5_11_4 0
x_5_11_5 0
x_5_12_0 0
x_5_12_1 0
x_5_12_2 0
x_5_12_3 0
x_5_12_4 0
x_5_12_5 0
x_5_13_0 0
x_5_13_1 0
x_5_13_2 0
x_5_13_3 0
x_5_13_4 0
x_5_13_5 0
x_5_14_0 0
x_5_14_1 0
x_5_14_2 0
x_5_14_3 0
x_5_14_4 0
x_5_14_5 0
x_5_15_0 0
x_5_15_1 0
x_5_15_2 0
x_5_15_3 0
x_5_15_4 0
x_5_15_5 0
x_6_7_0 0
x_6_7_1 0
x_6_7_2 0
x_6_7_3 0
x_6_7_4 0
x_6_7_5 0
x_6_8_0 0
x_6_8_1 0
x_6_8_2 0
x_6_8_3 0
x_6_8_4 0
x_6_8_5 0
x_6_9_0 1
x_6_9_1 1.4224732503009818e-16
x_6_9_2 1
x_6_9_3 0
x_6_9_4 9.9999999999999989e-01
x_6_9_5 0
x_6_10_0 0
x_6_10_1 0
x_6_10_2 0
x_6_10_3 0
x_6_10_4 0
x_6_10_5 0
x_6_11_0 0
x_6_11_1 0
x_6_11_2 0
x_6_11_3 0
x_6_11_4 1.0000000000000002e+00
x_6_11_5 0
x_6_12_0 0
x_6_12_1 0
x_6_12_2 0
x_6_12_3 0
x_6_12_4 0
x_6_12_5 0
x_6_13_0 0
x_6_13_1 0
x_6_13_2 0
x_6_13_3 0
x_6_13_4 0
x_6_13_5 0
x_6_14_0 0
x_6_14_1 0
x_6_14_2 0
x_6_14_3 0
x_6_14_4 0
x_6_14_5 0
x_6_15_0 0
x_6_15_1 0
x_6_15_2 0
x_6_15_3 0
x_6_15_4 0
x_6_15_5 0
x_7_8_0 0
x_7_8_1 0
x_7_8_2 0
x_7_8_3 0
x_7_8_4 0
x_7_8_5 0
x_7_9_0 0
x_7_9_1 0
x_7_9_2 0
x_7_9_3 0
x_7_9_4 0
x_7_9_5 0
x_7_10_0 0
x_7_10_1 0
x_7_10_2 0
x_7_10_3 0
x_7_10_4 0
x_7_10_5 0
x_7_11_0 0
x_7_11_1 0
x_7_11_2 0
x_7_11_3 0
x_7_11_4 0
x_7_11_5 0
x_7_12_0 0
x_7_12_1 0
x_7_12_2 0
x_7_12_3 0
x_7_12_4 0
x_7_12_5 0
x_7_13_0 0
x_7_13_1 0
x_7_13_2 0
x_7_13_3 0
x_7_13_4 0
x_7_13_5 0
x_7_14_0 0
x_7_14_1 0
x_7_14_2 0
x_7_14_3 0
x_7_14_4 0
x_7_14_5 0
x_7_15_0 0
x_7_15_1 0
x_7_15_2 0
x_7_15_3 0
x_7_15_4 0
x_7_15_5 0
x_8_9_0 0
x_8_9_1 0
x_8_9_2 0
x_8_9_3 0
x_8_9_4 0
x_8_9_5 0
x_8_10_0 0
x_8_10_1 -2.5153490401663703e-16
x_8_10_2 0
x_8_10_3 0
x_8_10_4 1
x_8_10_5 0
x_8_11_0 0
x_8_11_1 9.9999999999999933e-01
x_8_11_2 0
x_8_11_3 1
x_8_11_4 0
x_8_11_5 0
x_8_12_0 0
x_8_12_1 0
x_8_12_2 0
x_8_12_3 0
x_8_12_4 0
x_8_12_5 0
x_8_13_0 0
x_8_13_1 0
x_8_13_2 0
x_8_13_3 0
x_8_13_4 0
x_8_13_5 0
x_8_14_0 0
x_8_14_1 0
x_8_14_2 0
x_8_14_3 0
x_8_14_4 0
x_8_14_5 0
x_8_15_0 0
x_8_15_1 0
x_8_15_2 0
x_8_15_3 0
x_8_15_4 0
x_8_15_5 0
x_9_10_0 0
x_9_10_1 0
x_9_10_2 0
x_9_10_3 0
x_9_10_4 0
x_9_10_5 0
x_9_11_0 0
x_9_11_1 0
x_9_11_2 0
x_9_11_3 0
x_9_11_4 0
x_9_11_5 0
x_9_12_0 0
x_9_12_1 0
x_9_12_2 0
x_9_12_3 0
x_9_12_4 0
x_9_12_5 0
x_9_13_0 0
x_9_13_1 0
x_9_13_2 0
x_9_13_3 0
x_9_13_4 0
x_9_13_5 0
x_9_14_0 0
x_9_14_1 0
x_9_14_2 0
x_9_14_3 0
x_9_14_4 0
x_9_14_5 0
x_9_15_0 0
x_9_15_1 0
x_9_15_2 0
x_9_15_3 0
x_9_15_4 0
x_9_15_5 0
x_10_11_0 0
x_10_11_1 0
x_10_11_2 0
x_10_11_3 0
x_10_11_4 0
x_10_11_5 0
x_10_12_0 0
x_10_12_1 0
x_10_12_2 0
x_10_12_3 0
x_10_12_4 0
x_10_12_5 0
x_10_13_0 0
x_10_13_1 0
x_10_13_2 0
x_10_13_3 0
x_10_13_4 0
x_10_13_5 0
x_10_14_0 0
x_10_14_1 0
x_10_14_2 0
x_10_14_3 0
x_10_14_4 0
x_10_14_5 0
x_10_15_0 0
x_10_15_1 0
x_10_15_2 0
x_10_15_3 0
x_10_15_4 0
x_10_15_5 0
x_11_12_0 0
x_11_12_1 1
x_11_12_2 0
x_11_12_3 0
x_11_12_4 0
x_11_12_5 0
x_11_13_0 0
x_11_13_1 0
x_11_13_2 0
x_11_13_3 1
x_11_13_4 1.0000000000000002e+00
x_11_13_5 0
x_11_14_0 0
x_11_14_1 0
x_11_14_2 0
x_11_14_3 0
x_11_14_4 0
x_11_14_5 0
x_11_15_0 0
x_11_15_1 0
x_11_15_2 0
x_11_15_3 0
x_11_15_4 0
x_11_15_5 0
x_12_13_0 0
x_12_13_1 1
x_12_13_2 0
x_12_13_3 0
x_12_13_4 1.0000000000000002e+00
x_12_13_5 0
x_12_14_0 0
x_12_14_1 0
x_12_14_2 0
x_12_14_3 0
x_12_14_4 0
x_12_14_5 0
x_12_15_0 0
x_12_15_1 0
x_12_15_2 0
x_12_15_3 0
x_12_15_4 0
x_12_15_5 0
x_13_14_0 0
x_13_14_1 1
x_13_14_2 0
x_13_14_3 1
x_13_14_4 0
x_13_14_5 0
x_13_15_0 0
x_13_15_1 0
x_13_15_2 0
x_13_15_3 0
x_13_15_4 0
x_13_15_5 0
x_14_15_0 0
x_14_15_1 1
x_14_15_2 0
x_14_15_3 1
x_14_15_4 0
x_14_15_5 0
